c File: flat175_3_0.col
c
c SOURCE: Joseph Culberson (joe@cs.ualberta.ca)
c DESCRIPTION: Quasi-random coloring problem
c              generated with flatness = 0
c                             probability = 0.041
c                             known coloring = 3
c                             random seed = 1001
c              Creation Date:  Wed Feb 24 10:54:44 1999
c Maximum degree = 8 Minimum degree = 1
c COLOR VERIFICATION: Using the permuted order
c under simple greedy yields the specified
c coloring number
c Color = 3 specified partitions = 3
c p edge 175 417
c cnf created by edge2cnf
p cnf 525 1951
-1 -2 0
-1 -3 0
-2 -3 0
1 2 3 0
-4 -5 0
-4 -6 0
-5 -6 0
4 5 6 0
-7 -8 0
-7 -9 0
-8 -9 0
7 8 9 0
-10 -11 0
-10 -12 0
-11 -12 0
10 11 12 0
-13 -14 0
-13 -15 0
-14 -15 0
13 14 15 0
-16 -17 0
-16 -18 0
-17 -18 0
16 17 18 0
-19 -20 0
-19 -21 0
-20 -21 0
19 20 21 0
-22 -23 0
-22 -24 0
-23 -24 0
22 23 24 0
-25 -26 0
-25 -27 0
-26 -27 0
25 26 27 0
-28 -29 0
-28 -30 0
-29 -30 0
28 29 30 0
-31 -32 0
-31 -33 0
-32 -33 0
31 32 33 0
-34 -35 0
-34 -36 0
-35 -36 0
34 35 36 0
-37 -38 0
-37 -39 0
-38 -39 0
37 38 39 0
-40 -41 0
-40 -42 0
-41 -42 0
40 41 42 0
-43 -44 0
-43 -45 0
-44 -45 0
43 44 45 0
-46 -47 0
-46 -48 0
-47 -48 0
46 47 48 0
-49 -50 0
-49 -51 0
-50 -51 0
49 50 51 0
-52 -53 0
-52 -54 0
-53 -54 0
52 53 54 0
-55 -56 0
-55 -57 0
-56 -57 0
55 56 57 0
-58 -59 0
-58 -60 0
-59 -60 0
58 59 60 0
-61 -62 0
-61 -63 0
-62 -63 0
61 62 63 0
-64 -65 0
-64 -66 0
-65 -66 0
64 65 66 0
-67 -68 0
-67 -69 0
-68 -69 0
67 68 69 0
-70 -71 0
-70 -72 0
-71 -72 0
70 71 72 0
-73 -74 0
-73 -75 0
-74 -75 0
73 74 75 0
-76 -77 0
-76 -78 0
-77 -78 0
76 77 78 0
-79 -80 0
-79 -81 0
-80 -81 0
79 80 81 0
-82 -83 0
-82 -84 0
-83 -84 0
82 83 84 0
-85 -86 0
-85 -87 0
-86 -87 0
85 86 87 0
-88 -89 0
-88 -90 0
-89 -90 0
88 89 90 0
-91 -92 0
-91 -93 0
-92 -93 0
91 92 93 0
-94 -95 0
-94 -96 0
-95 -96 0
94 95 96 0
-97 -98 0
-97 -99 0
-98 -99 0
97 98 99 0
-100 -101 0
-100 -102 0
-101 -102 0
100 101 102 0
-103 -104 0
-103 -105 0
-104 -105 0
103 104 105 0
-106 -107 0
-106 -108 0
-107 -108 0
106 107 108 0
-109 -110 0
-109 -111 0
-110 -111 0
109 110 111 0
-112 -113 0
-112 -114 0
-113 -114 0
112 113 114 0
-115 -116 0
-115 -117 0
-116 -117 0
115 116 117 0
-118 -119 0
-118 -120 0
-119 -120 0
118 119 120 0
-121 -122 0
-121 -123 0
-122 -123 0
121 122 123 0
-124 -125 0
-124 -126 0
-125 -126 0
124 125 126 0
-127 -128 0
-127 -129 0
-128 -129 0
127 128 129 0
-130 -131 0
-130 -132 0
-131 -132 0
130 131 132 0
-133 -134 0
-133 -135 0
-134 -135 0
133 134 135 0
-136 -137 0
-136 -138 0
-137 -138 0
136 137 138 0
-139 -140 0
-139 -141 0
-140 -141 0
139 140 141 0
-142 -143 0
-142 -144 0
-143 -144 0
142 143 144 0
-145 -146 0
-145 -147 0
-146 -147 0
145 146 147 0
-148 -149 0
-148 -150 0
-149 -150 0
148 149 150 0
-151 -152 0
-151 -153 0
-152 -153 0
151 152 153 0
-154 -155 0
-154 -156 0
-155 -156 0
154 155 156 0
-157 -158 0
-157 -159 0
-158 -159 0
157 158 159 0
-160 -161 0
-160 -162 0
-161 -162 0
160 161 162 0
-163 -164 0
-163 -165 0
-164 -165 0
163 164 165 0
-166 -167 0
-166 -168 0
-167 -168 0
166 167 168 0
-169 -170 0
-169 -171 0
-170 -171 0
169 170 171 0
-172 -173 0
-172 -174 0
-173 -174 0
172 173 174 0
-175 -176 0
-175 -177 0
-176 -177 0
175 176 177 0
-178 -179 0
-178 -180 0
-179 -180 0
178 179 180 0
-181 -182 0
-181 -183 0
-182 -183 0
181 182 183 0
-184 -185 0
-184 -186 0
-185 -186 0
184 185 186 0
-187 -188 0
-187 -189 0
-188 -189 0
187 188 189 0
-190 -191 0
-190 -192 0
-191 -192 0
190 191 192 0
-193 -194 0
-193 -195 0
-194 -195 0
193 194 195 0
-196 -197 0
-196 -198 0
-197 -198 0
196 197 198 0
-199 -200 0
-199 -201 0
-200 -201 0
199 200 201 0
-202 -203 0
-202 -204 0
-203 -204 0
202 203 204 0
-205 -206 0
-205 -207 0
-206 -207 0
205 206 207 0
-208 -209 0
-208 -210 0
-209 -210 0
208 209 210 0
-211 -212 0
-211 -213 0
-212 -213 0
211 212 213 0
-214 -215 0
-214 -216 0
-215 -216 0
214 215 216 0
-217 -218 0
-217 -219 0
-218 -219 0
217 218 219 0
-220 -221 0
-220 -222 0
-221 -222 0
220 221 222 0
-223 -224 0
-223 -225 0
-224 -225 0
223 224 225 0
-226 -227 0
-226 -228 0
-227 -228 0
226 227 228 0
-229 -230 0
-229 -231 0
-230 -231 0
229 230 231 0
-232 -233 0
-232 -234 0
-233 -234 0
232 233 234 0
-235 -236 0
-235 -237 0
-236 -237 0
235 236 237 0
-238 -239 0
-238 -240 0
-239 -240 0
238 239 240 0
-241 -242 0
-241 -243 0
-242 -243 0
241 242 243 0
-244 -245 0
-244 -246 0
-245 -246 0
244 245 246 0
-247 -248 0
-247 -249 0
-248 -249 0
247 248 249 0
-250 -251 0
-250 -252 0
-251 -252 0
250 251 252 0
-253 -254 0
-253 -255 0
-254 -255 0
253 254 255 0
-256 -257 0
-256 -258 0
-257 -258 0
256 257 258 0
-259 -260 0
-259 -261 0
-260 -261 0
259 260 261 0
-262 -263 0
-262 -264 0
-263 -264 0
262 263 264 0
-265 -266 0
-265 -267 0
-266 -267 0
265 266 267 0
-268 -269 0
-268 -270 0
-269 -270 0
268 269 270 0
-271 -272 0
-271 -273 0
-272 -273 0
271 272 273 0
-274 -275 0
-274 -276 0
-275 -276 0
274 275 276 0
-277 -278 0
-277 -279 0
-278 -279 0
277 278 279 0
-280 -281 0
-280 -282 0
-281 -282 0
280 281 282 0
-283 -284 0
-283 -285 0
-284 -285 0
283 284 285 0
-286 -287 0
-286 -288 0
-287 -288 0
286 287 288 0
-289 -290 0
-289 -291 0
-290 -291 0
289 290 291 0
-292 -293 0
-292 -294 0
-293 -294 0
292 293 294 0
-295 -296 0
-295 -297 0
-296 -297 0
295 296 297 0
-298 -299 0
-298 -300 0
-299 -300 0
298 299 300 0
-301 -302 0
-301 -303 0
-302 -303 0
301 302 303 0
-304 -305 0
-304 -306 0
-305 -306 0
304 305 306 0
-307 -308 0
-307 -309 0
-308 -309 0
307 308 309 0
-310 -311 0
-310 -312 0
-311 -312 0
310 311 312 0
-313 -314 0
-313 -315 0
-314 -315 0
313 314 315 0
-316 -317 0
-316 -318 0
-317 -318 0
316 317 318 0
-319 -320 0
-319 -321 0
-320 -321 0
319 320 321 0
-322 -323 0
-322 -324 0
-323 -324 0
322 323 324 0
-325 -326 0
-325 -327 0
-326 -327 0
325 326 327 0
-328 -329 0
-328 -330 0
-329 -330 0
328 329 330 0
-331 -332 0
-331 -333 0
-332 -333 0
331 332 333 0
-334 -335 0
-334 -336 0
-335 -336 0
334 335 336 0
-337 -338 0
-337 -339 0
-338 -339 0
337 338 339 0
-340 -341 0
-340 -342 0
-341 -342 0
340 341 342 0
-343 -344 0
-343 -345 0
-344 -345 0
343 344 345 0
-346 -347 0
-346 -348 0
-347 -348 0
346 347 348 0
-349 -350 0
-349 -351 0
-350 -351 0
349 350 351 0
-352 -353 0
-352 -354 0
-353 -354 0
352 353 354 0
-355 -356 0
-355 -357 0
-356 -357 0
355 356 357 0
-358 -359 0
-358 -360 0
-359 -360 0
358 359 360 0
-361 -362 0
-361 -363 0
-362 -363 0
361 362 363 0
-364 -365 0
-364 -366 0
-365 -366 0
364 365 366 0
-367 -368 0
-367 -369 0
-368 -369 0
367 368 369 0
-370 -371 0
-370 -372 0
-371 -372 0
370 371 372 0
-373 -374 0
-373 -375 0
-374 -375 0
373 374 375 0
-376 -377 0
-376 -378 0
-377 -378 0
376 377 378 0
-379 -380 0
-379 -381 0
-380 -381 0
379 380 381 0
-382 -383 0
-382 -384 0
-383 -384 0
382 383 384 0
-385 -386 0
-385 -387 0
-386 -387 0
385 386 387 0
-388 -389 0
-388 -390 0
-389 -390 0
388 389 390 0
-391 -392 0
-391 -393 0
-392 -393 0
391 392 393 0
-394 -395 0
-394 -396 0
-395 -396 0
394 395 396 0
-397 -398 0
-397 -399 0
-398 -399 0
397 398 399 0
-400 -401 0
-400 -402 0
-401 -402 0
400 401 402 0
-403 -404 0
-403 -405 0
-404 -405 0
403 404 405 0
-406 -407 0
-406 -408 0
-407 -408 0
406 407 408 0
-409 -410 0
-409 -411 0
-410 -411 0
409 410 411 0
-412 -413 0
-412 -414 0
-413 -414 0
412 413 414 0
-415 -416 0
-415 -417 0
-416 -417 0
415 416 417 0
-418 -419 0
-418 -420 0
-419 -420 0
418 419 420 0
-421 -422 0
-421 -423 0
-422 -423 0
421 422 423 0
-424 -425 0
-424 -426 0
-425 -426 0
424 425 426 0
-427 -428 0
-427 -429 0
-428 -429 0
427 428 429 0
-430 -431 0
-430 -432 0
-431 -432 0
430 431 432 0
-433 -434 0
-433 -435 0
-434 -435 0
433 434 435 0
-436 -437 0
-436 -438 0
-437 -438 0
436 437 438 0
-439 -440 0
-439 -441 0
-440 -441 0
439 440 441 0
-442 -443 0
-442 -444 0
-443 -444 0
442 443 444 0
-445 -446 0
-445 -447 0
-446 -447 0
445 446 447 0
-448 -449 0
-448 -450 0
-449 -450 0
448 449 450 0
-451 -452 0
-451 -453 0
-452 -453 0
451 452 453 0
-454 -455 0
-454 -456 0
-455 -456 0
454 455 456 0
-457 -458 0
-457 -459 0
-458 -459 0
457 458 459 0
-460 -461 0
-460 -462 0
-461 -462 0
460 461 462 0
-463 -464 0
-463 -465 0
-464 -465 0
463 464 465 0
-466 -467 0
-466 -468 0
-467 -468 0
466 467 468 0
-469 -470 0
-469 -471 0
-470 -471 0
469 470 471 0
-472 -473 0
-472 -474 0
-473 -474 0
472 473 474 0
-475 -476 0
-475 -477 0
-476 -477 0
475 476 477 0
-478 -479 0
-478 -480 0
-479 -480 0
478 479 480 0
-481 -482 0
-481 -483 0
-482 -483 0
481 482 483 0
-484 -485 0
-484 -486 0
-485 -486 0
484 485 486 0
-487 -488 0
-487 -489 0
-488 -489 0
487 488 489 0
-490 -491 0
-490 -492 0
-491 -492 0
490 491 492 0
-493 -494 0
-493 -495 0
-494 -495 0
493 494 495 0
-496 -497 0
-496 -498 0
-497 -498 0
496 497 498 0
-499 -500 0
-499 -501 0
-500 -501 0
499 500 501 0
-502 -503 0
-502 -504 0
-503 -504 0
502 503 504 0
-505 -506 0
-505 -507 0
-506 -507 0
505 506 507 0
-508 -509 0
-508 -510 0
-509 -510 0
508 509 510 0
-511 -512 0
-511 -513 0
-512 -513 0
511 512 513 0
-514 -515 0
-514 -516 0
-515 -516 0
514 515 516 0
-517 -518 0
-517 -519 0
-518 -519 0
517 518 519 0
-520 -521 0
-520 -522 0
-521 -522 0
520 521 522 0
-523 -524 0
-523 -525 0
-524 -525 0
523 524 525 0
-7 -1 0
-8 -2 0
-9 -3 0
-157 -1 0
-158 -2 0
-159 -3 0
-364 -1 0
-365 -2 0
-366 -3 0
-502 -1 0
-503 -2 0
-504 -3 0
-274 -4 0
-275 -5 0
-276 -6 0
-286 -4 0
-287 -5 0
-288 -6 0
-478 -4 0
-479 -5 0
-480 -6 0
-220 -7 0
-221 -8 0
-222 -9 0
-478 -7 0
-479 -8 0
-480 -9 0
-103 -10 0
-104 -11 0
-105 -12 0
-244 -13 0
-245 -14 0
-246 -15 0
-271 -13 0
-272 -14 0
-273 -15 0
-328 -13 0
-329 -14 0
-330 -15 0
-436 -13 0
-437 -14 0
-438 -15 0
-490 -13 0
-491 -14 0
-492 -15 0
-76 -16 0
-77 -17 0
-78 -18 0
-157 -16 0
-158 -17 0
-159 -18 0
-271 -16 0
-272 -17 0
-273 -18 0
-340 -16 0
-341 -17 0
-342 -18 0
-379 -16 0
-380 -17 0
-381 -18 0
-442 -16 0
-443 -17 0
-444 -18 0
-76 -19 0
-77 -20 0
-78 -21 0
-103 -19 0
-104 -20 0
-105 -21 0
-346 -19 0
-347 -20 0
-348 -21 0
-379 -19 0
-380 -20 0
-381 -21 0
-304 -22 0
-305 -23 0
-306 -24 0
-310 -22 0
-311 -23 0
-312 -24 0
-313 -22 0
-314 -23 0
-315 -24 0
-379 -22 0
-380 -23 0
-381 -24 0
-481 -22 0
-482 -23 0
-483 -24 0
-280 -25 0
-281 -26 0
-282 -27 0
-454 -25 0
-455 -26 0
-456 -27 0
-118 -28 0
-119 -29 0
-120 -30 0
-142 -28 0
-143 -29 0
-144 -30 0
-208 -28 0
-209 -29 0
-210 -30 0
-238 -28 0
-239 -29 0
-240 -30 0
-145 -31 0
-146 -32 0
-147 -33 0
-328 -31 0
-329 -32 0
-330 -33 0
-346 -31 0
-347 -32 0
-348 -33 0
-430 -31 0
-431 -32 0
-432 -33 0
-73 -34 0
-74 -35 0
-75 -36 0
-121 -34 0
-122 -35 0
-123 -36 0
-130 -34 0
-131 -35 0
-132 -36 0
-163 -34 0
-164 -35 0
-165 -36 0
-355 -34 0
-356 -35 0
-357 -36 0
-115 -37 0
-116 -38 0
-117 -39 0
-154 -37 0
-155 -38 0
-156 -39 0
-178 -37 0
-179 -38 0
-180 -39 0
-145 -40 0
-146 -41 0
-147 -42 0
-286 -40 0
-287 -41 0
-288 -42 0
-289 -40 0
-290 -41 0
-291 -42 0
-292 -40 0
-293 -41 0
-294 -42 0
-349 -40 0
-350 -41 0
-351 -42 0
-403 -40 0
-404 -41 0
-405 -42 0
-454 -40 0
-455 -41 0
-456 -42 0
-85 -43 0
-86 -44 0
-87 -45 0
-172 -43 0
-173 -44 0
-174 -45 0
-175 -43 0
-176 -44 0
-177 -45 0
-337 -43 0
-338 -44 0
-339 -45 0
-424 -43 0
-425 -44 0
-426 -45 0
-226 -46 0
-227 -47 0
-228 -48 0
-235 -46 0
-236 -47 0
-237 -48 0
-496 -46 0
-497 -47 0
-498 -48 0
-154 -49 0
-155 -50 0
-156 -51 0
-166 -49 0
-167 -50 0
-168 -51 0
-283 -49 0
-284 -50 0
-285 -51 0
-76 -52 0
-77 -53 0
-78 -54 0
-97 -52 0
-98 -53 0
-99 -54 0
-343 -52 0
-344 -53 0
-345 -54 0
-346 -52 0
-347 -53 0
-348 -54 0
-118 -55 0
-119 -56 0
-120 -57 0
-310 -55 0
-311 -56 0
-312 -57 0
-403 -55 0
-404 -56 0
-405 -57 0
-499 -55 0
-500 -56 0
-501 -57 0
-97 -58 0
-98 -59 0
-99 -60 0
-277 -58 0
-278 -59 0
-279 -60 0
-385 -58 0
-386 -59 0
-387 -60 0
-385 -61 0
-386 -62 0
-387 -63 0
-499 -61 0
-500 -62 0
-501 -63 0
-112 -64 0
-113 -65 0
-114 -66 0
-358 -64 0
-359 -65 0
-360 -66 0
-115 -67 0
-116 -68 0
-117 -69 0
-211 -67 0
-212 -68 0
-213 -69 0
-283 -67 0
-284 -68 0
-285 -69 0
-505 -67 0
-506 -68 0
-507 -69 0
-523 -67 0
-524 -68 0
-525 -69 0
-112 -70 0
-113 -71 0
-114 -72 0
-181 -70 0
-182 -71 0
-183 -72 0
-490 -70 0
-491 -71 0
-492 -72 0
-151 -73 0
-152 -74 0
-153 -75 0
-280 -73 0
-281 -74 0
-282 -75 0
-382 -73 0
-383 -74 0
-384 -75 0
-520 -73 0
-521 -74 0
-522 -75 0
-136 -76 0
-137 -77 0
-138 -78 0
-442 -76 0
-443 -77 0
-444 -78 0
-103 -79 0
-104 -80 0
-105 -81 0
-109 -79 0
-110 -80 0
-111 -81 0
-346 -79 0
-347 -80 0
-348 -81 0
-385 -79 0
-386 -80 0
-387 -81 0
-427 -79 0
-428 -80 0
-429 -81 0
-496 -79 0
-497 -80 0
-498 -81 0
-499 -79 0
-500 -80 0
-501 -81 0
-103 -82 0
-104 -83 0
-105 -84 0
-265 -82 0
-266 -83 0
-267 -84 0
-364 -82 0
-365 -83 0
-366 -84 0
-439 -82 0
-440 -83 0
-441 -84 0
-445 -82 0
-446 -83 0
-447 -84 0
-448 -82 0
-449 -83 0
-450 -84 0
-115 -85 0
-116 -86 0
-117 -87 0
-196 -85 0
-197 -86 0
-198 -87 0
-313 -85 0
-314 -86 0
-315 -87 0
-379 -85 0
-380 -86 0
-381 -87 0
-421 -85 0
-422 -86 0
-423 -87 0
-442 -85 0
-443 -86 0
-444 -87 0
-301 -88 0
-302 -89 0
-303 -90 0
-472 -88 0
-473 -89 0
-474 -90 0
-124 -91 0
-125 -92 0
-126 -93 0
-172 -91 0
-173 -92 0
-174 -93 0
-232 -91 0
-233 -92 0
-234 -93 0
-241 -91 0
-242 -92 0
-243 -93 0
-361 -91 0
-362 -92 0
-363 -93 0
-415 -91 0
-416 -92 0
-417 -93 0
-505 -91 0
-506 -92 0
-507 -93 0
-508 -91 0
-509 -92 0
-510 -93 0
-196 -94 0
-197 -95 0
-198 -96 0
-199 -94 0
-200 -95 0
-201 -96 0
-307 -94 0
-308 -95 0
-309 -96 0
-316 -94 0
-317 -95 0
-318 -96 0
-421 -94 0
-422 -95 0
-423 -96 0
-451 -94 0
-452 -95 0
-453 -96 0
-352 -97 0
-353 -98 0
-354 -99 0
-436 -97 0
-437 -98 0
-438 -99 0
-262 -100 0
-263 -101 0
-264 -102 0
-352 -100 0
-353 -101 0
-354 -102 0
-457 -100 0
-458 -101 0
-459 -102 0
-463 -100 0
-464 -101 0
-465 -102 0
-493 -100 0
-494 -101 0
-495 -102 0
-193 -103 0
-194 -104 0
-195 -105 0
-343 -103 0
-344 -104 0
-345 -105 0
-400 -103 0
-401 -104 0
-402 -105 0
-154 -106 0
-155 -107 0
-156 -108 0
-172 -106 0
-173 -107 0
-174 -108 0
-178 -106 0
-179 -107 0
-180 -108 0
-190 -106 0
-191 -107 0
-192 -108 0
-256 -106 0
-257 -107 0
-258 -108 0
-385 -106 0
-386 -107 0
-387 -108 0
-511 -106 0
-512 -107 0
-513 -108 0
-523 -106 0
-524 -107 0
-525 -108 0
-121 -109 0
-122 -110 0
-123 -111 0
-160 -109 0
-161 -110 0
-162 -111 0
-163 -109 0
-164 -110 0
-165 -111 0
-172 -109 0
-173 -110 0
-174 -111 0
-394 -109 0
-395 -110 0
-396 -111 0
-442 -109 0
-443 -110 0
-444 -111 0
-448 -109 0
-449 -110 0
-450 -111 0
-115 -112 0
-116 -113 0
-117 -114 0
-118 -112 0
-119 -113 0
-120 -114 0
-214 -112 0
-215 -113 0
-216 -114 0
-202 -115 0
-203 -116 0
-204 -117 0
-229 -115 0
-230 -116 0
-231 -117 0
-520 -115 0
-521 -116 0
-522 -117 0
-160 -118 0
-161 -119 0
-162 -120 0
-208 -118 0
-209 -119 0
-210 -120 0
-277 -118 0
-278 -119 0
-279 -120 0
-469 -118 0
-470 -119 0
-471 -120 0
-475 -118 0
-476 -119 0
-477 -120 0
-217 -121 0
-218 -122 0
-219 -123 0
-238 -121 0
-239 -122 0
-240 -123 0
-343 -121 0
-344 -122 0
-345 -123 0
-400 -121 0
-401 -122 0
-402 -123 0
-433 -124 0
-434 -125 0
-435 -126 0
-316 -127 0
-317 -128 0
-318 -129 0
-352 -130 0
-353 -131 0
-354 -132 0
-379 -130 0
-380 -131 0
-381 -132 0
-448 -130 0
-449 -131 0
-450 -132 0
-481 -130 0
-482 -131 0
-483 -132 0
-136 -133 0
-137 -134 0
-138 -135 0
-247 -133 0
-248 -134 0
-249 -135 0
-265 -133 0
-266 -134 0
-267 -135 0
-319 -133 0
-320 -134 0
-321 -135 0
-382 -133 0
-383 -134 0
-384 -135 0
-202 -136 0
-203 -137 0
-204 -138 0
-283 -136 0
-284 -137 0
-285 -138 0
-313 -136 0
-314 -137 0
-315 -138 0
-301 -139 0
-302 -140 0
-303 -141 0
-313 -139 0
-314 -140 0
-315 -141 0
-523 -139 0
-524 -140 0
-525 -141 0
-397 -142 0
-398 -143 0
-399 -144 0
-469 -142 0
-470 -143 0
-471 -144 0
-172 -145 0
-173 -146 0
-174 -147 0
-295 -145 0
-296 -146 0
-297 -147 0
-307 -145 0
-308 -146 0
-309 -147 0
-382 -145 0
-383 -146 0
-384 -147 0
-481 -145 0
-482 -146 0
-483 -147 0
-358 -148 0
-359 -149 0
-360 -150 0
-457 -148 0
-458 -149 0
-459 -150 0
-502 -148 0
-503 -149 0
-504 -150 0
-217 -151 0
-218 -152 0
-219 -153 0
-229 -151 0
-230 -152 0
-231 -153 0
-385 -151 0
-386 -152 0
-387 -153 0
-286 -154 0
-287 -155 0
-288 -156 0
-310 -154 0
-311 -155 0
-312 -156 0
-388 -154 0
-389 -155 0
-390 -156 0
-448 -154 0
-449 -155 0
-450 -156 0
-166 -157 0
-167 -158 0
-168 -159 0
-286 -157 0
-287 -158 0
-288 -159 0
-301 -157 0
-302 -158 0
-303 -159 0
-445 -157 0
-446 -158 0
-447 -159 0
-205 -160 0
-206 -161 0
-207 -162 0
-253 -160 0
-254 -161 0
-255 -162 0
-313 -160 0
-314 -161 0
-315 -162 0
-397 -160 0
-398 -161 0
-399 -162 0
-463 -160 0
-464 -161 0
-465 -162 0
-175 -163 0
-176 -164 0
-177 -165 0
-280 -163 0
-281 -164 0
-282 -165 0
-292 -163 0
-293 -164 0
-294 -165 0
-346 -166 0
-347 -167 0
-348 -168 0
-412 -166 0
-413 -167 0
-414 -168 0
-265 -169 0
-266 -170 0
-267 -171 0
-403 -169 0
-404 -170 0
-405 -171 0
-415 -169 0
-416 -170 0
-417 -171 0
-259 -172 0
-260 -173 0
-261 -174 0
-421 -172 0
-422 -173 0
-423 -174 0
-400 -175 0
-401 -176 0
-402 -177 0
-505 -175 0
-506 -176 0
-507 -177 0
-520 -178 0
-521 -179 0
-522 -180 0
-193 -181 0
-194 -182 0
-195 -183 0
-334 -181 0
-335 -182 0
-336 -183 0
-454 -181 0
-455 -182 0
-456 -183 0
-244 -184 0
-245 -185 0
-246 -186 0
-280 -184 0
-281 -185 0
-282 -186 0
-283 -184 0
-284 -185 0
-285 -186 0
-289 -184 0
-290 -185 0
-291 -186 0
-451 -184 0
-452 -185 0
-453 -186 0
-460 -184 0
-461 -185 0
-462 -186 0
-190 -187 0
-191 -188 0
-192 -189 0
-286 -187 0
-287 -188 0
-288 -189 0
-451 -187 0
-452 -188 0
-453 -189 0
-256 -190 0
-257 -191 0
-258 -192 0
-271 -190 0
-272 -191 0
-273 -192 0
-316 -190 0
-317 -191 0
-318 -192 0
-307 -193 0
-308 -194 0
-309 -195 0
-445 -193 0
-446 -194 0
-447 -195 0
-448 -193 0
-449 -194 0
-450 -195 0
-478 -193 0
-479 -194 0
-480 -195 0
-517 -196 0
-518 -197 0
-519 -198 0
-523 -196 0
-524 -197 0
-525 -198 0
-217 -199 0
-218 -200 0
-219 -201 0
-247 -199 0
-248 -200 0
-249 -201 0
-256 -199 0
-257 -200 0
-258 -201 0
-298 -199 0
-299 -200 0
-300 -201 0
-346 -199 0
-347 -200 0
-348 -201 0
-370 -199 0
-371 -200 0
-372 -201 0
-319 -202 0
-320 -203 0
-321 -204 0
-331 -202 0
-332 -203 0
-333 -204 0
-487 -202 0
-488 -203 0
-489 -204 0
-262 -205 0
-263 -206 0
-264 -207 0
-520 -205 0
-521 -206 0
-522 -207 0
-322 -208 0
-323 -209 0
-324 -210 0
-322 -211 0
-323 -212 0
-324 -213 0
-367 -211 0
-368 -212 0
-369 -213 0
-415 -211 0
-416 -212 0
-417 -213 0
-334 -214 0
-335 -215 0
-336 -216 0
-316 -217 0
-317 -218 0
-318 -219 0
-493 -217 0
-494 -218 0
-495 -219 0
-244 -220 0
-245 -221 0
-246 -222 0
-307 -220 0
-308 -221 0
-309 -222 0
-427 -220 0
-428 -221 0
-429 -222 0
-415 -223 0
-416 -224 0
-417 -225 0
-247 -226 0
-248 -227 0
-249 -228 0
-319 -226 0
-320 -227 0
-321 -228 0
-325 -226 0
-326 -227 0
-327 -228 0
-382 -226 0
-383 -227 0
-384 -228 0
-490 -226 0
-491 -227 0
-492 -228 0
-370 -229 0
-371 -230 0
-372 -231 0
-457 -229 0
-458 -230 0
-459 -231 0
-514 -229 0
-515 -230 0
-516 -231 0
-253 -232 0
-254 -233 0
-255 -234 0
-496 -232 0
-497 -233 0
-498 -234 0
-331 -235 0
-332 -236 0
-333 -237 0
-334 -235 0
-335 -236 0
-336 -237 0
-367 -235 0
-368 -236 0
-369 -237 0
-436 -235 0
-437 -236 0
-438 -237 0
-364 -238 0
-365 -239 0
-366 -240 0
-376 -238 0
-377 -239 0
-378 -240 0
-412 -238 0
-413 -239 0
-414 -240 0
-451 -238 0
-452 -239 0
-453 -240 0
-499 -238 0
-500 -239 0
-501 -240 0
-280 -241 0
-281 -242 0
-282 -243 0
-310 -241 0
-311 -242 0
-312 -243 0
-472 -241 0
-473 -242 0
-474 -243 0
-496 -241 0
-497 -242 0
-498 -243 0
-352 -244 0
-353 -245 0
-354 -246 0
-400 -244 0
-401 -245 0
-402 -246 0
-430 -244 0
-431 -245 0
-432 -246 0
-292 -247 0
-293 -248 0
-294 -249 0
-364 -247 0
-365 -248 0
-366 -249 0
-397 -247 0
-398 -248 0
-399 -249 0
-412 -247 0
-413 -248 0
-414 -249 0
-466 -247 0
-467 -248 0
-468 -249 0
-346 -250 0
-347 -251 0
-348 -252 0
-415 -250 0
-416 -251 0
-417 -252 0
-514 -250 0
-515 -251 0
-516 -252 0
-373 -253 0
-374 -254 0
-375 -255 0
-397 -253 0
-398 -254 0
-399 -255 0
-448 -253 0
-449 -254 0
-450 -255 0
-508 -253 0
-509 -254 0
-510 -255 0
-307 -256 0
-308 -257 0
-309 -258 0
-436 -256 0
-437 -257 0
-438 -258 0
-376 -259 0
-377 -260 0
-378 -261 0
-418 -259 0
-419 -260 0
-420 -261 0
-454 -259 0
-455 -260 0
-456 -261 0
-460 -259 0
-461 -260 0
-462 -261 0
-508 -259 0
-509 -260 0
-510 -261 0
-517 -259 0
-518 -260 0
-519 -261 0
-400 -262 0
-401 -263 0
-402 -264 0
-436 -262 0
-437 -263 0
-438 -264 0
-361 -265 0
-362 -266 0
-363 -267 0
-430 -265 0
-431 -266 0
-432 -267 0
-505 -265 0
-506 -266 0
-507 -267 0
-370 -268 0
-371 -269 0
-372 -270 0
-337 -271 0
-338 -272 0
-339 -273 0
-433 -271 0
-434 -272 0
-435 -273 0
-478 -271 0
-479 -272 0
-480 -273 0
-475 -274 0
-476 -275 0
-477 -276 0
-493 -274 0
-494 -275 0
-495 -276 0
-412 -277 0
-413 -278 0
-414 -279 0
-424 -277 0
-425 -278 0
-426 -279 0
-463 -277 0
-464 -278 0
-465 -279 0
-322 -280 0
-323 -281 0
-324 -282 0
-319 -283 0
-320 -284 0
-321 -285 0
-496 -283 0
-497 -284 0
-498 -285 0
-385 -289 0
-386 -290 0
-387 -291 0
-523 -289 0
-524 -290 0
-525 -291 0
-310 -292 0
-311 -293 0
-312 -294 0
-406 -292 0
-407 -293 0
-408 -294 0
-496 -292 0
-497 -293 0
-498 -294 0
-334 -298 0
-335 -299 0
-336 -300 0
-310 -301 0
-311 -302 0
-312 -303 0
-394 -304 0
-395 -305 0
-396 -306 0
-478 -307 0
-479 -308 0
-480 -309 0
-499 -307 0
-500 -308 0
-501 -309 0
-472 -310 0
-473 -311 0
-474 -312 0
-319 -313 0
-320 -314 0
-321 -315 0
-457 -313 0
-458 -314 0
-459 -315 0
-328 -316 0
-329 -317 0
-330 -318 0
-463 -316 0
-464 -317 0
-465 -318 0
-472 -316 0
-473 -317 0
-474 -318 0
-508 -316 0
-509 -317 0
-510 -318 0
-514 -319 0
-515 -320 0
-516 -321 0
-514 -322 0
-515 -323 0
-516 -324 0
-376 -325 0
-377 -326 0
-378 -327 0
-430 -325 0
-431 -326 0
-432 -327 0
-439 -325 0
-440 -326 0
-441 -327 0
-442 -325 0
-443 -326 0
-444 -327 0
-466 -325 0
-467 -326 0
-468 -327 0
-475 -328 0
-476 -329 0
-477 -330 0
-511 -328 0
-512 -329 0
-513 -330 0
-505 -331 0
-506 -332 0
-507 -333 0
-403 -334 0
-404 -335 0
-405 -336 0
-409 -334 0
-410 -335 0
-411 -336 0
-505 -334 0
-506 -335 0
-507 -336 0
-412 -337 0
-413 -338 0
-414 -339 0
-487 -337 0
-488 -338 0
-489 -339 0
-349 -340 0
-350 -341 0
-351 -342 0
-391 -340 0
-392 -341 0
-393 -342 0
-448 -346 0
-449 -347 0
-450 -348 0
-439 -349 0
-440 -350 0
-441 -351 0
-397 -352 0
-398 -353 0
-399 -354 0
-445 -352 0
-446 -353 0
-447 -354 0
-382 -355 0
-383 -356 0
-384 -357 0
-520 -355 0
-521 -356 0
-522 -357 0
-370 -358 0
-371 -359 0
-372 -360 0
-469 -358 0
-470 -359 0
-471 -360 0
-517 -358 0
-518 -359 0
-519 -360 0
-388 -361 0
-389 -362 0
-390 -363 0
-424 -367 0
-425 -368 0
-426 -369 0
-514 -367 0
-515 -368 0
-516 -369 0
-442 -370 0
-443 -371 0
-444 -372 0
-403 -373 0
-404 -374 0
-405 -375 0
-460 -373 0
-461 -374 0
-462 -375 0
-496 -373 0
-497 -374 0
-498 -375 0
-382 -376 0
-383 -377 0
-384 -378 0
-415 -376 0
-416 -377 0
-417 -378 0
-427 -382 0
-428 -383 0
-429 -384 0
-448 -382 0
-449 -383 0
-450 -384 0
-457 -385 0
-458 -386 0
-459 -387 0
-484 -388 0
-485 -389 0
-486 -390 0
-466 -394 0
-467 -395 0
-468 -396 0
-490 -394 0
-491 -395 0
-492 -396 0
-499 -394 0
-500 -395 0
-501 -396 0
-508 -394 0
-509 -395 0
-510 -396 0
-427 -400 0
-428 -401 0
-429 -402 0
-406 -403 0
-407 -404 0
-408 -405 0
-445 -403 0
-446 -404 0
-447 -405 0
-451 -403 0
-452 -404 0
-453 -405 0
-475 -409 0
-476 -410 0
-477 -411 0
-484 -409 0
-485 -410 0
-486 -411 0
-466 -412 0
-467 -413 0
-468 -414 0
-439 -418 0
-440 -419 0
-441 -420 0
-463 -424 0
-464 -425 0
-465 -426 0
-463 -430 0
-464 -431 0
-465 -432 0
-466 -433 0
-467 -434 0
-468 -435 0
-520 -433 0
-521 -434 0
-522 -435 0
-466 -439 0
-467 -440 0
-468 -441 0
-469 -442 0
-470 -443 0
-471 -444 0
-514 -442 0
-515 -443 0
-516 -444 0
-478 -445 0
-479 -446 0
-480 -447 0
-490 -454 0
-491 -455 0
-492 -456 0
-508 -454 0
-509 -455 0
-510 -456 0
-511 -460 0
-512 -461 0
-513 -462 0
-508 -469 0
-509 -470 0
-510 -471 0
-487 -478 0
-488 -479 0
-489 -480 0
-490 -478 0
-491 -479 0
-492 -480 0
-496 -493 0
-497 -494 0
-498 -495 0
-508 -499 0
-509 -500 0
-510 -501 0
-511 -502 0
-512 -503 0
-513 -504 0
